54547
18, 12, 9, 14, 2, 11, 25, 31, 1, 27, 33, 42, 45, 52, 15, 36, 46, 39, 16, 10, 22, 29, 21, 48, 49, 26, 55, 28, 6, 3, 43, 13, 51, 40, 7, 37, 5, 35, 24, 20, 50, 38, 8, 44, 32, 41, 19, 17, 23, 53, 54, 34, 47, 4, 30
